c This is a Hoffman Graph.
c (could be any graph)
c cf. https://en.wikipedia.org/wiki/Hoffman_graph
c for licensing/copyright questions
p tw 16 32
1 2
1 14
1 8
1 9
2 15
2 3
2 10
11 13
11 16
12 15
14 16
3 11
3 4
3 9
4 16
4 5
4 10
5 11
5 12
5 6
6 13
6 15
6 7
7 12
7 14
7 8
8 13
8 16
9 13
9 15
10 12
10 14
